============================[ Problem Statistics ]=============================
|                                                                             |
|  Number of variables:          3111                                         |
|  Number of clauses:            9288                                         |
|  Parse time:                   0.00 s                                       |
|  Eliminated clauses:           0.10 Mb                                      |
|  Simplification time:          0.01 s                                       |
|                                                                             |
============================[ Search Statistics ]==============================
| Conflicts |          ORIGINAL         |          LEARNT          | Progress |
|           |    Vars  Clauses Literals |    Limit  Clauses Lit/Cl |          |
===============================================================================
|       100 |     873     4473    14309 |     1640      100     32 |  0.033 % |
|       250 |     873     4473    14309 |     1804      250     35 |  0.032 % |
|       475 |     873     4473    14309 |     1984      475     37 |  0.032 % |
|       812 |     873     4473    14309 |     2182      812     35 |  0.032 % |
|      1318 |     873     4473    14309 |     2401     1318     41 |  0.032 % |
|      2077 |     873     4473    14309 |     2641     2077     39 |  0.033 % |
|      3216 |     873     4473    14309 |     2905     1791     34 |  0.032 % |
|      4924 |     873     4473    14309 |     3196     2005     29 |  0.032 % |
|      7486 |     873     4473    14309 |     3515     2819     28 |  0.032 % |
|     11330 |     873     4473    14309 |     3867     3094     26 |  0.032 % |
|     17096 |     873     4473    14309 |     4253     2792     25 |  0.032 % |
|     25745 |     873     4473    14309 |     4679     2690     24 |  0.032 % |
|     38719 |     872     4469    14293 |     5147     3536     24 |  0.064 % |
|     58180 |     872     4469    14293 |     5662     4459     28 |  0.064 % |
|     87372 |     872     4469    14293 |     6228     4544     24 |  0.064 % |
|    131161 |     872     4469    14293 |     6851     3726     24 |  0.064 % |
|    196845 |     872     4469    14293 |     7536     6176     24 |  0.064 % |
|    295371 |     872     4469    14293 |     8289     4462     23 |  0.064 % |
|    443160 |     872     4469    14293 |     9118     8163     32 |  0.065 % |
|    664843 |     872     4469    14293 |    10030     5951     25 |  0.064 % |
|    997368 |     872     4469    14293 |    11033     7295     27 |  0.064 % |
|   1496156 |     872     4469    14293 |    12137     6463     21 |  0.064 % |
|   2244338 |     870     4461    14261 |    13350     8413     19 |  0.129 % |
|   3366612 |     869     4457    14245 |    14685    13502     29 |  0.161 % |
|   5050023 |     869     4457    14245 |    16154     9310     25 |  0.161 % |
|   7575139 |     868     4453    14229 |    17770    10201     21 |  0.193 % |
|  11362814 |     868     4453    14229 |    19547     8941     21 |  0.193 % |
|  17044326 |     868     4453    14229 |    21501    19203     27 |  0.193 % |
|  25566595 |     868     4453    14229 |    23651    14473     21 |  0.193 % |
|  38349998 |     868     4453    14229 |    26017    14084     25 |  0.193 % |
|  57525103 |     867     4449    14213 |    28618    13730     22 |  0.225 % |
===============================================================================
restarts              : 98301
conflicts             : 75407032       (26977 /sec)
decisions             : 90345235       (0.00 % random) (32322 /sec)
propagations          : 16144029182    (5775627 /sec)
conflict literals     : 2304469461     (52.68 % deleted)
Memory used           : 175.84 MB
CPU time              : 2795.2 s

INDETERMINATE
File /Users/damy17/Documents/hw-uni/master-1-uvt/verificare-formala/benchmark/input-files/benchmarkfile18.cnf timed out after 2880 seconds.
